% Escenario 3:
% - 3 plantas
% - 2 clientes
% - 3 días
% Se incrementa el requisito mínimo (G=70%) y se cambian costos/capacidades levemente.

np = 3;
nc = 2;
nd = 3;

nombrePlanta = ["Nuclear", "Hidroelectrica", "Termica"];
nombreCliente = ["ClienteA", "ClienteB"];

costo = [35.0, 20.0, 45.0];
cap = [900, 350, 400];
pago = [110.0, 115.0];

dem = array2d(1..nc, 1..nd, [
  100, 100, 100,
  120, 120, 120
]);

G = 0.70;

umbralAlto = [0.8, 0.7, 0.85];
maxDiasAlto = [2, 1, 1];
